121
135
129
110
109
130
136
131
132
119
107
108
120
118
106
99
97
98
85
73
64
52
39
40
38
31
19
17
6
5
18
30
29
1
7
8
27
28
41
42
61
62
51
53
63
65
72
74
84
86
96
75
76
49
43
60
70
79
91
103
115
124
133
125
126
134
127
128
122
111
112
101
92
80
69
68
56
47
35
46
57
58
45
48
55
67
77
88
94
93
104
116
123
113
114
102
90
81
89
82
78
59
44
36
33
24
12
4
13
22
34
23
11
3
10
14
21
25
26
9
15
2
16
20
32
37
50
54
66
71
83
87
95
100
105
117
121
